NAME : tsp_21_sol.txt
COMMENT : OR-Tools Guided Local Search
TYPE : TOUR
DIMENSION : 50
COST : 5529
STATUS : ROUTING_SUCCESS
GAP : 0.00% (Reference Solution)
TOUR_SECTION
1
22
38
2
47
10
7
42
27
49
40
37
4
9
36
11
45
34
15
17
19
3
48
25
16
46
32
6
28
39
29
23
5
8
31
43
44
33
12
30
21
41
26
18
14
50
24
13
20
35
-1
